N = 102;
M = 416;
R0 = 30;
Start = 1;
End = 102;
Edge =  [|2 ,12 ,
         | 2 ,13 ,
         | 3 ,13 ,
         | 3 ,14 ,
         | 3 ,12 ,
         | 4 ,14 ,
         | 4 ,15 ,
         | 4 ,13 ,
         | 5 ,15 ,
         | 5 ,16 ,
         | 5 ,14 ,
         | 6 ,16 ,
         | 6 ,17 ,
         | 6 ,15 ,
         | 7 ,17 ,
         | 7 ,18 ,
         | 7 ,16 ,
         | 8 ,18 ,
         | 8 ,19 ,
         | 8 ,17 ,
         | 9 ,19 ,
         | 9 ,20 ,
         | 9 ,18 ,
         | 10 ,20 ,
         | 10 ,21 ,
         | 10 ,19 ,
         | 11 ,21 ,
         | 11 ,20 ,
         | 12 ,13 ,
         | 12 ,22 ,
         | 12 ,23 ,
         | 13 ,14 ,
         | 13 ,12 ,
         | 13 ,23 ,
         | 13 ,24 ,
         | 13 ,22 ,
         | 14 ,15 ,
         | 14 ,13 ,
         | 14 ,24 ,
         | 14 ,25 ,
         | 14 ,23 ,
         | 15 ,16 ,
         | 15 ,14 ,
         | 15 ,25 ,
         | 15 ,26 ,
         | 15 ,24 ,
         | 16 ,17 ,
         | 16 ,15 ,
         | 16 ,26 ,
         | 16 ,27 ,
         | 16 ,25 ,
         | 17 ,18 ,
         | 17 ,16 ,
         | 17 ,27 ,
         | 17 ,28 ,
         | 17 ,26 ,
         | 18 ,19 ,
         | 18 ,17 ,
         | 18 ,28 ,
         | 18 ,29 ,
         | 18 ,27 ,
         | 19 ,20 ,
         | 19 ,18 ,
         | 19 ,29 ,
         | 19 ,30 ,
         | 19 ,28 ,
         | 20 ,21 ,
         | 20 ,19 ,
         | 20 ,30 ,
         | 20 ,31 ,
         | 20 ,29 ,
         | 21 ,20 ,
         | 21 ,31 ,
         | 21 ,30 ,
         | 22 ,23 ,
         | 22 ,32 ,
         | 22 ,33 ,
         | 23 ,24 ,
         | 23 ,22 ,
         | 23 ,33 ,
         | 23 ,34 ,
         | 23 ,32 ,
         | 24 ,25 ,
         | 24 ,23 ,
         | 24 ,34 ,
         | 24 ,35 ,
         | 24 ,33 ,
         | 25 ,26 ,
         | 25 ,24 ,
         | 25 ,35 ,
         | 25 ,36 ,
         | 25 ,34 ,
         | 26 ,27 ,
         | 26 ,25 ,
         | 26 ,36 ,
         | 26 ,37 ,
         | 26 ,35 ,
         | 27 ,28 ,
         | 27 ,26 ,
         | 27 ,37 ,
         | 27 ,38 ,
         | 27 ,36 ,
         | 28 ,29 ,
         | 28 ,27 ,
         | 28 ,38 ,
         | 28 ,39 ,
         | 28 ,37 ,
         | 29 ,30 ,
         | 29 ,28 ,
         | 29 ,39 ,
         | 29 ,40 ,
         | 29 ,38 ,
         | 30 ,31 ,
         | 30 ,29 ,
         | 30 ,40 ,
         | 30 ,41 ,
         | 30 ,39 ,
         | 31 ,30 ,
         | 31 ,41 ,
         | 31 ,40 ,
         | 32 ,33 ,
         | 32 ,42 ,
         | 32 ,43 ,
         | 33 ,34 ,
         | 33 ,32 ,
         | 33 ,43 ,
         | 33 ,44 ,
         | 33 ,42 ,
         | 34 ,35 ,
         | 34 ,33 ,
         | 34 ,44 ,
         | 34 ,45 ,
         | 34 ,43 ,
         | 35 ,36 ,
         | 35 ,34 ,
         | 35 ,45 ,
         | 35 ,46 ,
         | 35 ,44 ,
         | 36 ,37 ,
         | 36 ,35 ,
         | 36 ,46 ,
         | 36 ,47 ,
         | 36 ,45 ,
         | 37 ,38 ,
         | 37 ,36 ,
         | 37 ,47 ,
         | 37 ,48 ,
         | 37 ,46 ,
         | 38 ,39 ,
         | 38 ,37 ,
         | 38 ,48 ,
         | 38 ,49 ,
         | 38 ,47 ,
         | 39 ,40 ,
         | 39 ,38 ,
         | 39 ,49 ,
         | 39 ,50 ,
         | 39 ,48 ,
         | 40 ,41 ,
         | 40 ,39 ,
         | 40 ,50 ,
         | 40 ,51 ,
         | 40 ,49 ,
         | 41 ,40 ,
         | 41 ,51 ,
         | 41 ,50 ,
         | 42 ,43 ,
         | 42 ,52 ,
         | 42 ,53 ,
         | 43 ,44 ,
         | 43 ,42 ,
         | 43 ,53 ,
         | 43 ,54 ,
         | 43 ,52 ,
         | 44 ,45 ,
         | 44 ,43 ,
         | 44 ,54 ,
         | 44 ,55 ,
         | 44 ,53 ,
         | 45 ,46 ,
         | 45 ,44 ,
         | 45 ,55 ,
         | 45 ,56 ,
         | 45 ,54 ,
         | 46 ,47 ,
         | 46 ,45 ,
         | 46 ,56 ,
         | 46 ,57 ,
         | 46 ,55 ,
         | 47 ,48 ,
         | 47 ,46 ,
         | 47 ,57 ,
         | 47 ,58 ,
         | 47 ,56 ,
         | 48 ,49 ,
         | 48 ,47 ,
         | 48 ,58 ,
         | 48 ,59 ,
         | 48 ,57 ,
         | 49 ,50 ,
         | 49 ,48 ,
         | 49 ,59 ,
         | 49 ,60 ,
         | 49 ,58 ,
         | 50 ,51 ,
         | 50 ,49 ,
         | 50 ,60 ,
         | 50 ,61 ,
         | 50 ,59 ,
         | 51 ,50 ,
         | 51 ,61 ,
         | 51 ,60 ,
         | 52 ,53 ,
         | 52 ,62 ,
         | 52 ,63 ,
         | 53 ,54 ,
         | 53 ,52 ,
         | 53 ,63 ,
         | 53 ,64 ,
         | 53 ,62 ,
         | 54 ,55 ,
         | 54 ,53 ,
         | 54 ,64 ,
         | 54 ,65 ,
         | 54 ,63 ,
         | 55 ,56 ,
         | 55 ,54 ,
         | 55 ,65 ,
         | 55 ,66 ,
         | 55 ,64 ,
         | 56 ,57 ,
         | 56 ,55 ,
         | 56 ,66 ,
         | 56 ,67 ,
         | 56 ,65 ,
         | 57 ,58 ,
         | 57 ,56 ,
         | 57 ,67 ,
         | 57 ,68 ,
         | 57 ,66 ,
         | 58 ,59 ,
         | 58 ,57 ,
         | 58 ,68 ,
         | 58 ,69 ,
         | 58 ,67 ,
         | 59 ,60 ,
         | 59 ,58 ,
         | 59 ,69 ,
         | 59 ,70 ,
         | 59 ,68 ,
         | 60 ,61 ,
         | 60 ,59 ,
         | 60 ,70 ,
         | 60 ,71 ,
         | 60 ,69 ,
         | 61 ,60 ,
         | 61 ,71 ,
         | 61 ,70 ,
         | 62 ,63 ,
         | 62 ,72 ,
         | 62 ,73 ,
         | 63 ,64 ,
         | 63 ,62 ,
         | 63 ,73 ,
         | 63 ,74 ,
         | 63 ,72 ,
         | 64 ,65 ,
         | 64 ,63 ,
         | 64 ,74 ,
         | 64 ,75 ,
         | 64 ,73 ,
         | 65 ,66 ,
         | 65 ,64 ,
         | 65 ,75 ,
         | 65 ,76 ,
         | 65 ,74 ,
         | 66 ,67 ,
         | 66 ,65 ,
         | 66 ,76 ,
         | 66 ,77 ,
         | 66 ,75 ,
         | 67 ,68 ,
         | 67 ,66 ,
         | 67 ,77 ,
         | 67 ,78 ,
         | 67 ,76 ,
         | 68 ,69 ,
         | 68 ,67 ,
         | 68 ,78 ,
         | 68 ,79 ,
         | 68 ,77 ,
         | 69 ,70 ,
         | 69 ,68 ,
         | 69 ,79 ,
         | 69 ,80 ,
         | 69 ,78 ,
         | 70 ,71 ,
         | 70 ,69 ,
         | 70 ,80 ,
         | 70 ,81 ,
         | 70 ,79 ,
         | 71 ,70 ,
         | 71 ,81 ,
         | 71 ,80 ,
         | 72 ,73 ,
         | 72 ,82 ,
         | 72 ,83 ,
         | 73 ,74 ,
         | 73 ,72 ,
         | 73 ,83 ,
         | 73 ,84 ,
         | 73 ,82 ,
         | 74 ,75 ,
         | 74 ,73 ,
         | 74 ,84 ,
         | 74 ,85 ,
         | 74 ,83 ,
         | 75 ,76 ,
         | 75 ,74 ,
         | 75 ,85 ,
         | 75 ,86 ,
         | 75 ,84 ,
         | 76 ,77 ,
         | 76 ,75 ,
         | 76 ,86 ,
         | 76 ,87 ,
         | 76 ,85 ,
         | 77 ,78 ,
         | 77 ,76 ,
         | 77 ,87 ,
         | 77 ,88 ,
         | 77 ,86 ,
         | 78 ,79 ,
         | 78 ,77 ,
         | 78 ,88 ,
         | 78 ,89 ,
         | 78 ,87 ,
         | 79 ,80 ,
         | 79 ,78 ,
         | 79 ,89 ,
         | 79 ,90 ,
         | 79 ,88 ,
         | 80 ,81 ,
         | 80 ,79 ,
         | 80 ,90 ,
         | 80 ,91 ,
         | 80 ,89 ,
         | 81 ,80 ,
         | 81 ,91 ,
         | 81 ,90 ,
         | 82 ,83 ,
         | 82 ,92 ,
         | 82 ,93 ,
         | 83 ,84 ,
         | 83 ,82 ,
         | 83 ,93 ,
         | 83 ,94 ,
         | 83 ,92 ,
         | 84 ,85 ,
         | 84 ,83 ,
         | 84 ,94 ,
         | 84 ,95 ,
         | 84 ,93 ,
         | 85 ,86 ,
         | 85 ,84 ,
         | 85 ,95 ,
         | 85 ,96 ,
         | 85 ,94 ,
         | 86 ,87 ,
         | 86 ,85 ,
         | 86 ,96 ,
         | 86 ,97 ,
         | 86 ,95 ,
         | 87 ,88 ,
         | 87 ,86 ,
         | 87 ,97 ,
         | 87 ,98 ,
         | 87 ,96 ,
         | 88 ,89 ,
         | 88 ,87 ,
         | 88 ,98 ,
         | 88 ,99 ,
         | 88 ,97 ,
         | 89 ,90 ,
         | 89 ,88 ,
         | 89 ,99 ,
         | 89 ,100 ,
         | 89 ,98 ,
         | 90 ,91 ,
         | 90 ,89 ,
         | 90 ,100 ,
         | 90 ,101 ,
         | 90 ,99 ,
         | 91 ,90 ,
         | 91 ,101 ,
         | 91 ,100 ,
         | 1 ,2 ,
         | 1 ,3 ,
         | 1 ,4 ,
         | 1 ,5 ,
         | 1 ,6 ,
         | 1 ,7 ,
         | 1 ,8 ,
         | 1 ,9 ,
         | 1 ,10 ,
         | 1 ,11 ,
         | 92 ,102 ,
         | 93 ,102 ,
         | 94 ,102 ,
         | 95 ,102 ,
         | 96 ,102 ,
         | 97 ,102 ,
         | 98 ,102 ,
         | 99 ,102 ,
         | 100 ,102 ,
         | 101 ,102|];

L = [8 ,2 ,2 ,4 ,1 ,8 ,3 ,2 ,8 ,9 ,10 ,10 ,9 ,8 ,4 ,9 ,2 ,3 ,3 ,10 ,2 ,3 ,2 ,5 ,7 ,3 ,5 ,1 ,6 ,10 ,1 ,3 ,8 ,2 ,7 ,2 ,5 ,2 ,5 ,8 ,7 ,5 ,9 ,5 ,10 ,7 ,7 ,9 ,4 ,3 ,5 ,9 ,9 ,3 ,10 ,9 ,3 ,2 ,1 ,6 ,5 ,7 ,3 ,5 ,7 ,9 ,5 ,10 ,6 ,8 ,5 ,8 ,7 ,7 ,5 ,10 ,3 ,8 ,8 ,6 ,3 ,6 ,10 ,5 ,9 ,9 ,6 ,6 ,2 ,10 ,4 ,3 ,1 ,3 ,6 ,2 ,8 ,6 ,1 ,10 ,8 ,9 ,2 ,4 ,9 ,3 ,9 ,8 ,2 ,1 ,2 ,10 ,9 ,8 ,8 ,7 ,8 ,6 ,7 ,1 ,10 ,3 ,5 ,8 ,6 ,7 ,5 ,10 ,9 ,4 ,10 ,3 ,6 ,8 ,9 ,4 ,3 ,7 ,10 ,8 ,6 ,9 ,3 ,8 ,9 ,4 ,7 ,6 ,4 ,8 ,9 ,8 ,4 ,6 ,5 ,1 ,10 ,1 ,6 ,10 ,3 ,1 ,10 ,10 ,4 ,10 ,9 ,5 ,5 ,6 ,3 ,3 ,10 ,9 ,8 ,7 ,2 ,8 ,5 ,9 ,2 ,9 ,3 ,3 ,5 ,9 ,3 ,8 ,3 ,4 ,2 ,9 ,7 ,9 ,4 ,7 ,6 ,9 ,6 ,1 ,8 ,10 ,10 ,8 ,10 ,5 ,8 ,7 ,1 ,2 ,3 ,6 ,2 ,1 ,9 ,9 ,9 ,7 ,5 ,10 ,1 ,8 ,5 ,5 ,5 ,4 ,5 ,1 ,7 ,5 ,10 ,6 ,1 ,9 ,2 ,6 ,9 ,2 ,6 ,2 ,8 ,2 ,10 ,1 ,4 ,9 ,1 ,10 ,10 ,10 ,6 ,9 ,5 ,2 ,9 ,10 ,1 ,2 ,6 ,7 ,1 ,8 ,2 ,10 ,10 ,10 ,2 ,6 ,6 ,3 ,4 ,7 ,7 ,10 ,10 ,3 ,5 ,4 ,3 ,8 ,7 ,6 ,1 ,5 ,7 ,9 ,5 ,1 ,6 ,6 ,10 ,7 ,7 ,10 ,10 ,9 ,7 ,10 ,7 ,7 ,4 ,8 ,3 ,3 ,5 ,2 ,8 ,1 ,7 ,10 ,4 ,6 ,10 ,8 ,10 ,7 ,10 ,2 ,2 ,2 ,2 ,6 ,10 ,6 ,2 ,4 ,9 ,8 ,3 ,10 ,6 ,10 ,2 ,5 ,2 ,7 ,1 ,7 ,9 ,2 ,9 ,8 ,1 ,9 ,2 ,9 ,5 ,2 ,6 ,8 ,7 ,4 ,5 ,9 ,1 ,1 ,10 ,7 ,8 ,1 ,5 ,10 ,9 ,3 ,2 ,2 ,1 ,7 ,10 ,1 ,7 ,8 ,9 ,10 ,5 ,9 ,6 ,2 ,2 ,5 ,10 ,5 ,10 ,8 ,9 ,1 ,4 ,7 ,6 ,4 ,3 ,5 ,1 ,1 ,4 ,3 ,7 ,5 ,9 ,6 ,8 ,8 ,5 ,7 ,9 ,5 ,5 ,6 ,8 ,2 ,2 ,10 ,4 ,4 ,4 ,5];
D = [2 ,10 ,2 ,1 ,6 ,10 ,2 ,1 ,4 ,8 ,2 ,1 ,2 ,6 ,4 ,1 ,1 ,8 ,1 ,8 ,9 ,1 ,9 ,8 ,5 ,5 ,3 ,10 ,8 ,8 ,8 ,8 ,5 ,3 ,2 ,8 ,4 ,3 ,3 ,2 ,4 ,1 ,2 ,8 ,5 ,4 ,4 ,4 ,9 ,10 ,1 ,3 ,8 ,3 ,3 ,2 ,1 ,3 ,7 ,4 ,9 ,6 ,9 ,5 ,10 ,2 ,4 ,7 ,8 ,3 ,1 ,7 ,8 ,8 ,10 ,6 ,9 ,8 ,2 ,8 ,10 ,5 ,6 ,10 ,5 ,10 ,9 ,8 ,9 ,9 ,5 ,1 ,1 ,6 ,7 ,5 ,10 ,9 ,10 ,4 ,8 ,10 ,3 ,3 ,7 ,9 ,10 ,1 ,6 ,10 ,6 ,4 ,7 ,1 ,2 ,6 ,4 ,10 ,3 ,4 ,10 ,9 ,1 ,6 ,5 ,6 ,1 ,5 ,10 ,9 ,6 ,6 ,5 ,3 ,7 ,8 ,6 ,9 ,10 ,9 ,10 ,7 ,2 ,2 ,3 ,2 ,5 ,7 ,10 ,6 ,2 ,2 ,3 ,3 ,4 ,3 ,2 ,5 ,6 ,7 ,7 ,5 ,5 ,4 ,10 ,8 ,6 ,7 ,10 ,4 ,3 ,1 ,9 ,4 ,1 ,2 ,4 ,7 ,9 ,9 ,5 ,3 ,7 ,9 ,2 ,6 ,5 ,5 ,2 ,8 ,5 ,5 ,4 ,9 ,6 ,1 ,4 ,1 ,8 ,7 ,7 ,9 ,10 ,5 ,1 ,10 ,10 ,7 ,7 ,7 ,10 ,3 ,9 ,3 ,1 ,1 ,1 ,8 ,3 ,8 ,5 ,8 ,3 ,9 ,6 ,3 ,10 ,7 ,6 ,2 ,7 ,9 ,7 ,3 ,9 ,10 ,4 ,7 ,9 ,6 ,5 ,10 ,1 ,10 ,2 ,3 ,5 ,7 ,10 ,6 ,4 ,4 ,1 ,1 ,10 ,7 ,7 ,4 ,6 ,6 ,3 ,6 ,1 ,3 ,6 ,8 ,9 ,1 ,4 ,10 ,7 ,8 ,9 ,7 ,5 ,6 ,10 ,5 ,10 ,1 ,6 ,1 ,4 ,4 ,5 ,7 ,8 ,10 ,5 ,2 ,6 ,5 ,5 ,3 ,6 ,3 ,10 ,3 ,5 ,10 ,6 ,6 ,9 ,7 ,5 ,3 ,8 ,5 ,3 ,10 ,3 ,5 ,9 ,1 ,10 ,2 ,1 ,3 ,8 ,9 ,4 ,7 ,7 ,8 ,6 ,5 ,6 ,5 ,3 ,1 ,9 ,6 ,7 ,7 ,6 ,5 ,7 ,1 ,10 ,10 ,6 ,1 ,1 ,4 ,7 ,9 ,5 ,10 ,6 ,1 ,9 ,4 ,1 ,1 ,5 ,10 ,10 ,3 ,4 ,4 ,1 ,7 ,1 ,2 ,9 ,2 ,4 ,4 ,6 ,7 ,8 ,10 ,6 ,6 ,8 ,5 ,8 ,3 ,5 ,8 ,10 ,2 ,9 ,6 ,2 ,4 ,2 ,7 ,2 ,10 ,6 ,9 ,9 ,7 ,2 ,5 ,10 ,8 ,2 ,8 ,10 ,8 ,5 ,4 ,9 ,3 ,8 ,4 ,9 ,7 ,4 ,7 ,7 ,4 ,2 ,5];
R = [1 ,1 ,3 ,1 ,5 ,4 ,2 ,5 ,1 ,1 ,5 ,3 ,3 ,3 ,4 ,5 ,3 ,4 ,1 ,2 ,2 ,3 ,2 ,1 ,1 ,2 ,4 ,4 ,3 ,4 ,5 ,5 ,3 ,4 ,5 ,4 ,3 ,5 ,3 ,1 ,1 ,2 ,3 ,1 ,1 ,1 ,4 ,3 ,4 ,2 ,3 ,4 ,3 ,1 ,2 ,3 ,1 ,2 ,4 ,4 ,3 ,5 ,1 ,4 ,3 ,4 ,3 ,1 ,2 ,4 ,1 ,3 ,2 ,2 ,3 ,2 ,5 ,1 ,1 ,1 ,3 ,3 ,5 ,2 ,1 ,2 ,3 ,3 ,5 ,1 ,3 ,4 ,2 ,5 ,5 ,3 ,2 ,1 ,3 ,2 ,2 ,5 ,5 ,5 ,3 ,5 ,5 ,3 ,4 ,5 ,2 ,3 ,5 ,1 ,3 ,2 ,1 ,3 ,1 ,2 ,5 ,2 ,5 ,5 ,4 ,2 ,3 ,1 ,1 ,5 ,5 ,3 ,2 ,1 ,2 ,3 ,5 ,4 ,4 ,4 ,1 ,5 ,4 ,5 ,3 ,3 ,5 ,5 ,4 ,4 ,5 ,1 ,5 ,4 ,3 ,3 ,1 ,4 ,3 ,5 ,4 ,5 ,3 ,2 ,4 ,4 ,5 ,4 ,4 ,3 ,4 ,2 ,3 ,4 ,5 ,1 ,4 ,2 ,3 ,4 ,1 ,2 ,4 ,2 ,4 ,5 ,4 ,3 ,4 ,2 ,2 ,2 ,2 ,2 ,5 ,5 ,2 ,1 ,2 ,4 ,3 ,2 ,5 ,4 ,1 ,1 ,2 ,2 ,4 ,2 ,1 ,2 ,4 ,3 ,3 ,3 ,1 ,1 ,2 ,5 ,2 ,2 ,4 ,1 ,5 ,1 ,4 ,2 ,5 ,1 ,5 ,5 ,4 ,4 ,5 ,5 ,5 ,1 ,2 ,5 ,1 ,4 ,3 ,5 ,4 ,5 ,5 ,3 ,1 ,5 ,1 ,1 ,1 ,3 ,3 ,5 ,4 ,1 ,3 ,1 ,2 ,2 ,3 ,1 ,5 ,5 ,4 ,4 ,5 ,5 ,2 ,2 ,4 ,3 ,3 ,2 ,3 ,2 ,5 ,3 ,1 ,5 ,5 ,4 ,3 ,4 ,5 ,5 ,2 ,4 ,3 ,4 ,3 ,4 ,2 ,1 ,4 ,2 ,3 ,3 ,5 ,1 ,3 ,4 ,4 ,5 ,1 ,2 ,4 ,1 ,3 ,2 ,4 ,2 ,4 ,2 ,1 ,2 ,3 ,1 ,2 ,3 ,3 ,2 ,1 ,4 ,5 ,3 ,3 ,1 ,3 ,4 ,1 ,5 ,2 ,4 ,1 ,2 ,5 ,1 ,3 ,1 ,5 ,5 ,3 ,2 ,1 ,3 ,4 ,4 ,3 ,2 ,4 ,4 ,4 ,1 ,4 ,1 ,5 ,1 ,2 ,4 ,2 ,3 ,1 ,4 ,4 ,3 ,1 ,5 ,2 ,4 ,5 ,5 ,1 ,4 ,3 ,2 ,4 ,5 ,3 ,5 ,1 ,4 ,5 ,1 ,1 ,3 ,3 ,5 ,3 ,4 ,4 ,1 ,3 ,5 ,2 ,1 ,2 ,1 ,1 ,4 ,1 ,1 ,5 ,4 ,5 ,2 ,5 ,1 ,1 ,3 ,2 ,2 ,1 ,5];
Balance = [1 ,0 ,0 ,0 ,0 ,0 ,0 ,0 ,0 ,0 ,0 ,0 ,0 ,0 ,0 ,0 ,0 ,0 ,0 ,0 ,0 ,0 ,0 ,0 ,0 ,0 ,0 ,0 ,0 ,0 ,0 ,0 ,0 ,0 ,0 ,0 ,0 ,0 ,0 ,0 ,0 ,0 ,0 ,0 ,0 ,0 ,0 ,0 ,0 ,0 ,0 ,0 ,0 ,0 ,0 ,0 ,0 ,0 ,0 ,0 ,0 ,0 ,0 ,0 ,0 ,0 ,0 ,0 ,0 ,0 ,0 ,0 ,0 ,0 ,0 ,0 ,0 ,0 ,0 ,0 ,0 ,0 ,0 ,0 ,0 ,0 ,0 ,0 ,0 ,0 ,0 ,0 ,0 ,0 ,0 ,0 ,0 ,0 ,0 ,0 ,0 ,-1];
